p edge 11 34
e 1 2
e 1 8
e 1 9
e 1 11
e 2 7
e 2 4
e 2 10
e 2 1
e 3 4
e 3 5
e 4 10
e 4 3
e 4 2
e 5 6
e 5 3
e 6 8
e 6 5
e 7 9
e 7 2
e 8 9
e 8 11
e 8 6
e 8 1
e 9 10
e 9 11
e 9 8
e 9 7
e 9 1
e 10 9
e 10 4
e 10 2
e 11 9
e 11 8
e 11 1
